36
[-1, 174, 0, 0, 0, 0, 485, 0, 106, 0, 0, 0, 0, 23, 0, 0, 7, 0, 0, 190, 0, 331, 350, 472, 0, 74, 0, 320, 0, 0, 0, 0, 138, 0, 387, 351, 
174, -1, 0, 0, 0, 245, 0, 0, 0, 219, 0, 288, 138, 0, 44, 24, 0, 219, 0, 277, 49, 156, 0, 238, 0, 193, 0, 0, 0, 0, 152, 453, 198, 0, 0, 181, 
0, 0, -1, 241, 0, 0, 0, 239, 0, 32, 0, 0, 0, 0, 0, 0, 0, 78, 76, 0, 0, 184, 0, 118, 45, 2, 0, 431, 0, 316, 0, 293, 273, 0, 57, 0, 
0, 0, 241, -1, 0, 0, 0, 0, 491, 0, 109, 0, 164, 0, 0, 0, 0, 0, 0, 0, 46, 0, 386, 0, 0, 44, 0, 0, 250, 409, 5, 352, 0, 16, 0, 0, 
0, 0, 0, 0, -1, 0, 490, 39, 51, 473, 341, 0, 153, 0, 308, 497, 0, 0, 2, 275, 0, 328, 0, 1, 8, 215, 408, 347, 39, 432, 398, 0, 161, 28, 0, 477, 
0, 245, 0, 0, 0, -1, 394, 0, 114, 0, 0, 0, 67, 0, 330, 60, 362, 0, 109, 50, 0, 174, 447, 34, 0, 0, 0, 0, 312, 368, 0, 0, 0, 0, 0, 41, 
485, 0, 0, 0, 490, 394, -1, 0, 170, 0, 359, 204, 0, 0, 0, 25, 74, 0, 78, 115, 374, 418, 65, 0, 57, 408, 105, 349, 447, 0, 152, 0, 5, 0, 0, 324, 
0, 0, 239, 0, 39, 0, 0, -1, 27, 188, 0, 0, 35, 398, 0, 0, 472, 341, 0, 392, 382, 0, 0, 0, 56, 302, 220, 135, 81, 0, 108, 222, 207, 24, 0, 0, 
106, 0, 0, 491, 51, 114, 170, 27, -1, 141, 0, 0, 348, 52, 355, 0, 0, 352, 0, 389, 452, 0, 0, 0, 0, 0, 254, 118, 0, 0, 97, 161, 298, 0, 0, 475, 
0, 219, 32, 0, 473, 0, 0, 188, 141, -1, 0, 461, 376, 0, 0, 108, 0, 244, 0, 0, 0, 0, 424, 33, 0, 449, 457, 429, 0, 24, 35, 275, 0, 81, 207, 0, 
0, 0, 0, 109, 341, 0, 359, 0, 0, 0, -1, 135, 390, 0, 0, 0, 181, 385, 457, 0, 373, 248, 278, 13, 0, 310, 0, 0, 0, 0, 296, 272, 343, 197, 66, 325, 
0, 288, 0, 0, 0, 0, 204, 0, 0, 461, 135, -1, 0, 0, 0, 0, 286, 16, 26, 261, 0, 0, 0, 325, 0, 0, 0, 0, 93, 0, 496, 0, 196, 444, 0, 484, 
0, 138, 0, 164, 153, 67, 0, 35, 348, 376, 390, 0, -1, 0, 0, 78, 0, 334, 412, 0, 0, 152, 71, 338, 0, 0, 126, 212, 0, 0, 0, 0, 0, 0, 0, 116, 
23, 0, 0, 0, 0, 0, 0, 398, 52, 0, 0, 0, 0, -1, 0, 67, 0, 167, 0, 431, 0, 487, 0, 0, 311, 358, 0, 413, 311, 145, 93, 23, 0, 185, 326, 37, 
0, 44, 0, 0, 308, 330, 0, 0, 355, 0, 0, 0, 0, 0, -1, 212, 243, 0, 0, 0, 0, 48, 0, 0, 144, 0, 45, 0, 0, 182, 0, 0, 0, 0, 0, 229, 
0, 24, 0, 0, 497, 60, 25, 0, 0, 108, 0, 0, 78, 67, 212, -1, 91, 0, 26, 0, 0, 35, 0, 0, 0, 58, 442, 447, 0, 0, 76, 0, 128, 0, 0, 235, 
7, 0, 0, 0, 0, 362, 74, 472, 0, 0, 181, 286, 0, 0, 243, 91, -1, 0, 0, 0, 0, 427, 0, 120, 0, 198, 457, 336, 236, 188, 0, 0, 38, 35, 0, 71, 
0, 219, 78, 0, 0, 0, 0, 341, 352, 244, 385, 16, 334, 167, 0, 0, 0, -1, 237, 195, 429, 286, 0, 451, 0, 278, 362, 0, 0, 27, 458, 0, 0, 0, 193, 393, 
0, 0, 76, 0, 2, 109, 78, 0, 0, 0, 457, 26, 412, 0, 0, 26, 0, 237, -1, 0, 497, 398, 0, 0, 203, 0, 268, 0, 0, 62, 216, 0, 200, 0, 0, 131, 
190, 277, 0, 0, 275, 50, 115, 392, 389, 0, 0, 261, 0, 431, 0, 0, 0, 195, 0, -1, 242, 0, 208, 0, 161, 406, 447, 79, 0, 0, 120, 0, 0, 393, 404, 0, 
0, 49, 0, 46, 0, 0, 374, 382, 452, 0, 373, 0, 0, 0, 0, 0, 0, 429, 497, 242, -1, 426, 9, 27, 212, 0, 439, 0, 0, 244, 0, 0, 159, 89, 264, 0, 
331, 156, 184, 0, 328, 174, 418, 0, 0, 0, 248, 0, 152, 487, 48, 35, 427, 286, 398, 0, 426, -1, 24, 0, 0, 359, 0, 275, 368, 326, 0, 0, 0, 0, 475, 43, 
350, 0, 0, 386, 0, 447, 65, 0, 0, 424, 278, 0, 71, 0, 0, 0, 0, 0, 0, 208, 9, 24, -1, 312, 0, 161, 392, 0, 0, 0, 0, 233, 221, 255, 46, 493, 
472, 238, 118, 0, 1, 34, 0, 0, 0, 33, 13, 325, 338, 0, 0, 0, 120, 451, 0, 0, 27, 0, 312, -1, 0, 0, 334, 179, 19, 0, 0, 89, 0, 140, 0, 490, 
0, 0, 45, 0, 8, 0, 57, 56, 0, 0, 0, 0, 0, 311, 144, 0, 0, 0, 203, 161, 212, 0, 0, 0, -1, 446, 393, 421, 0, 0, 0, 432, 280, 0, 0, 99, 
74, 193, 2, 44, 215, 0, 408, 302, 0, 449, 310, 0, 0, 358, 0, 58, 198, 278, 0, 406, 0, 359, 161, 0, 446, -1, 22, 0, 265, 67, 0, 0, 0, 145, 0, 466, 
0, 0, 0, 0, 408, 0, 105, 220, 254, 457, 0, 0, 126, 0, 45, 442, 457, 362, 268, 447, 439, 0, 392, 334, 393, 22, -1, 0, 203, 4, 417, 241, 493, 107, 0, 0, 
320, 0, 431, 0, 347, 0, 349, 135, 118, 429, 0, 0, 212, 413, 0, 447, 336, 0, 0, 79, 0, 275, 0, 179, 421, 0, 0, -1, 0, 134, 0, 0, 0, 213, 0, 71, 
0, 0, 0, 250, 39, 312, 447, 81, 0, 0, 0, 93, 0, 311, 0, 0, 236, 0, 0, 0, 0, 368, 0, 19, 0, 265, 203, 0, -1, 0, 0, 30, 0, 357, 0, 0, 
0, 0, 316, 409, 432, 368, 0, 0, 0, 24, 0, 0, 0, 145, 182, 0, 188, 27, 62, 0, 244, 326, 0, 0, 0, 67, 4, 134, 0, -1, 0, 0, 219, 190, 88, 0, 
0, 152, 0, 5, 398, 0, 152, 108, 97, 35, 296, 496, 0, 93, 0, 76, 0, 458, 216, 120, 0, 0, 0, 0, 0, 0, 417, 0, 0, 0, -1, 0, 0, 413, 363, 255, 
0, 453, 293, 352, 0, 0, 0, 222, 161, 275, 272, 0, 0, 23, 0, 0, 0, 0, 0, 0, 0, 0, 233, 89, 432, 0, 241, 0, 30, 0, 0, -1, 0, 0, 4, 485, 
138, 198, 273, 0, 161, 0, 5, 207, 298, 0, 343, 196, 0, 0, 0, 128, 38, 0, 200, 0, 159, 0, 221, 0, 280, 0, 493, 0, 0, 219, 0, 0, -1, 0, 0, 423, 
0, 0, 0, 16, 28, 0, 0, 24, 0, 81, 197, 444, 0, 185, 0, 0, 35, 0, 0, 393, 89, 0, 255, 140, 0, 145, 107, 213, 357, 190, 413, 0, 0, -1, 0, 5, 
387, 0, 57, 0, 0, 0, 0, 0, 0, 207, 66, 0, 0, 326, 0, 0, 0, 193, 0, 404, 264, 475, 46, 0, 0, 0, 0, 0, 0, 88, 363, 4, 0, 0, -1, 318, 
351, 181, 0, 0, 477, 41, 324, 0, 475, 0, 325, 484, 116, 37, 229, 235, 71, 393, 131, 0, 0, 43, 493, 490, 99, 466, 0, 71, 0, 0, 255, 485, 423, 5, 318, -1]